c --- [ banner ] -------------------------------------------------------------
c 
c CaDiCaL Radically Simplified CDCL SAT Solver
c Copyright (c) 2016-2021 A. Biere, M. Fleury, N. Froleyks
c 
c Version 1.5.2 a5f15211db36c3956764e18194dd5bd63bf3b5e6
c g++ (GCC) 9.3.0 -Wall -Wextra -O3 -DNDEBUG
c Fri Oct 21 01:27:37 EDT 2022 Linux gra-login3 3.10.0-1160.66.1.el7.x86_64 x86_64
c 
c --- [ limit ] --------------------------------------------------------------
c 
c setting conflict limit to 200000 conflicts (due to '200000')
c 
c --- [ parsing input ] ------------------------------------------------------
c 
c reading DIMACS file from '33.cubes4487.adj'
c opening file to read '33.cubes4487.adj'
c found 'p cnf 6160 1595473' header
c parsed 1595473 clauses in 19.39 seconds process time
c closing file '33.cubes4487.adj'
c after reading 1457566761 bytes 1390.0 MB
c 
c --- [ options ] ------------------------------------------------------------
c 
c all options are set to their default value
c 
c --- [ solving ] ------------------------------------------------------------
c 
c time measured in process time since initialization
c 
c  seconds    reductions  redundant   irredundant
c          MB     restarts       trail       variables
c            level   conflicts       glue         remaining
c 
c * 19.39 1377  0 0   0    0    0  0% 0 1595422 2343 38%
c { 19.98 1406  0 0   0    0    0  0% 0 1595422 2343 38%
c i 20.40 1429 1183 0   0    4    3 36% 1 1595422 2335 38%
c i 22.21 1480 1071 0   2   59   55 40% 5 1595422 2333 38%
c i 22.23 1480 1053 0   2   60   55 39% 5 1595422 2291 37%
c i 22.86 1488 776 0   7   88   77 35% 7 1595422 2285 37%
c i 23.50 1490 608 0  15  114   98 34% 10 1595422 2284 37%
c i 23.57 1491 561 0  16  125  107 33% 11 1595422 2283 37%
c i 25.26 1499 359 0  36  214  177 29% 13 1595422 2282 37%
c i 25.30 1499 354 0  36  217  179 29% 13 1595422 2281 37%
c i 25.54 1500 323 0  36  244  202 29% 12 1595422 2280 37%
c i 25.54 1500 322 0  36  245  202 29% 12 1595422 2279 37%
c i 25.61 1500 316 0  36  250  206 29% 12 1595422 2278 37%
c i 25.73 1500 309 0  36  257  212 29% 12 1595422 2277 37%
c i 25.81 1501 302 0  36  264  218 29% 12 1595422 2276 37%
c i 25.82 1501 301 0  36  265  218 29% 12 1595422 2275 37%
c i 25.82 1501 300 0  36  266  218 29% 12 1595422 2274 37%
c i 25.84 1501 295 0  36  271  221 29% 12 1595422 2273 37%
c i 25.85 1501 293 0  36  273  222 29% 12 1595422 2272 37%
c i 25.93 1501 287 0  36  280  227 29% 12 1595422 2271 37%
c 
c  seconds     reductions  redundant    irredundant
c          MB      restarts       trail        variables
c             level   conflicts       glue          remaining
c 
c i 25.96 1501 279 0  38  288  234 29% 13 1595422 2270 37%
c i 25.96 1501 278 0  38  289  234 29% 13 1595422 2269 37%
c i 25.97 1501 277 0  39  290  234 29% 13 1595422 2268 37%
c i 25.97 1501 276 0  39  291  234 29% 13 1595422 2267 37%
c - 30.34 1456 270 1  40  300  239 29% 12 214810 2267 37%
c i 31.08 1367 227 1  57  378  305 29% 18 214810 2266 37%
c i 31.08 1367 226 1  58  379  305 29% 18 214810 2265 37%
c i 31.08 1367 225 1  58  381  306 29% 17 214810 2264 37%
c i 31.08 1367 224 1  59  382  306 29% 17 214810 2263 37%
c i 31.08 1367 224 1  59  383  306 29% 17 214810 2262 37%
c i 31.08 1367 223 1  59  384  306 29% 17 214810 2261 37%
c i 31.08 1367 222 1  60  385  306 29% 17 214810 2260 37%
c i 31.08 1367 222 1  60  386  306 28% 17 214810 2259 37%
c i 31.08 1367 221 1  60  387  306 28% 17 214810 2258 37%
c i 31.48 1367 193 1  70  458  359 28% 17 214810 2257 37%
c i 31.90 1367 160 1  73  565  431 28% 16 214810 2256 37%
c i 31.95 1367 160 1  73  567  432 28% 16 214810 2255 37%
c i 32.21 1367 156 1  78  597  454 28% 17 214810 2254 37%
c i 32.69 1367 145 1  92  656  506 28% 17 214810 2253 37%
c i 32.94 1367 143 1  99  688  536 28% 18 214810 2252 37%
c 
c  seconds     reductions  redundant   irredundant
c          MB      restarts       trail       variables
c             level   conflicts       glue         remaining
c 
c i 33.00 1367 143 1 104  708  555 28% 18 214810 2251 37%
c i 33.01 1367 142 1 105  711  557 28% 18 214810 2250 37%
c i 33.01 1367 141 1 106  715  558 28% 19 214810 2249 37%
c i 33.07 1367 141 1 108  722  564 28% 18 214810 2248 36%
c i 33.20 1367 139 1 112  740  578 28% 18 214810 2247 36%
c i 33.20 1367 138 1 112  742  579 28% 18 214810 2246 36%
c i 33.23 1367 138 1 112  746  582 27% 18 214810 2245 36%
c i 33.23 1367 138 1 112  747  582 27% 18 214810 2244 36%
c i 33.44 1367 136 1 114  763  596 27% 18 214810 2243 36%
c i 33.45 1367 136 1 115  766  598 27% 18 214810 2242 36%
c i 33.51 1367 135 1 115  769  600 27% 18 214810 2241 36%
c i 33.51 1367 135 1 115  770  600 27% 18 214810 2240 36%
c i 33.51 1367 135 1 115  771  600 27% 18 214810 2239 36%
c i 33.59 1367 134 1 115  779  606 27% 18 214810 2238 36%
c i 33.62 1367 134 1 115  782  608 27% 18 214810 2237 36%
c i 33.73 1367 133 1 115  794  618 27% 18 214810 2236 36%
c i 33.88 1367 132 1 118  811  633 28% 19 214810 2235 36%
c i 34.05 1367 129 1 126  839  657 28% 19 214810 2234 36%
c i 34.05 1367 129 1 126  840  657 28% 19 214810 2233 36%
c i 34.06 1367 128 1 126  843  659 28% 19 214810 2232 36%
c 
c  seconds     reductions  redundant   irredundant
c          MB      restarts       trail       variables
c             level   conflicts       glue         remaining
c 
c i 34.12 1367 127 1 129  852  667 28% 19 214810 2231 36%
c i 34.23 1367 123 1 139  889  696 28% 20 214810 2230 36%
c i 34.31 1367 122 1 142  905  710 28% 19 214810 2229 36%
c i 34.37 1367 121 1 143  922  722 28% 19 214810 2228 36%
c i 34.41 1367 121 1 143  926  725 28% 20 214810 2227 36%
c i 34.46 1367 120 1 146  938  736 28% 20 214810 2226 36%
c i 34.54 1367 120 1 148  949  744 28% 20 214810 2225 36%
c } 34.69 1367 116 1 158 1001  768 28% 20 214810 2225 36%
c [ 34.69 1367  0 1 158 1001  768  0% 0 214810 2225 36%
c O 34.71 1367  1 1 158 1002  769 21% 1 214810 2225 36%
c i 34.87 1367 22 1 158 1034  795 32% 18 214810 2224 36%
c i 34.89 1367 21 1 158 1051  803 32% 17 214810 2223 36%
c i 34.89 1367 21 1 158 1055  804 32% 16 214810 2222 36%
c i 34.90 1367 20 1 158 1073  811 32% 16 214810 2221 36%
c i 34.92 1367 20 1 158 1084  820 32% 16 214810 2220 36%
c i 34.94 1367 21 1 158 1095  826 32% 15 214810 2219 36%
c - 35.29 1447 21 2 158 1099  739 32% 16 214670 2219 36%
c i 35.41 1447 22 2 158 1173  781 32% 17 214670 2218 36%
c i 35.41 1447 22 2 158 1174  781 32% 17 214670 2217 36%
c i 35.42 1447 21 2 158 1205  793 31% 16 214670 2216 36%
c 
c  seconds    reductions  redundant   irredundant
c          MB     restarts       trail       variables
c            level   conflicts       glue         remaining
c 
c i 35.45 1447 21 2 158 1296  843 32% 17 214670 2215 36%
c i 35.46 1447 21 2 158 1323  854 32% 17 214670 2214 36%
c i 35.46 1447 21 2 158 1325  855 32% 17 214670 2213 36%
c i 35.48 1447 20 2 158 1348  862 32% 17 214670 2212 36%
c i 35.50 1447 21 2 158 1384  886 32% 17 214670 2211 36%
c ] 35.69 1447 19 2 158 1982 1204 31% 16 214670 2211 36%
c 1 35.69 1447 19 2 158 1982 1204 31% 16 214670 2211 36%
c 
c --- [ writing output ] -----------------------------------------------------
c 
c writing simplified CNF to DIMACS file 'simp/33.cubes4487.adj.simp1'
c * 35.69 1447 19 2 158 1982 1204 31% 16 214670 2211 36%
c opening file to write 'simp/33.cubes4487.adj.simp1'
c writing 'p cnf 6160 214646' header
c closing file 'simp/33.cubes4487.adj.simp1'
c after writing 89457648 bytes 85.3 MB
c wrote 214646 clauses in 0.66 seconds process time
c 
c --- [ writing extension ] --------------------------------------------------
c 
c writing extension stack to 'simp/33.cubes4487.adj.ext1'
c opening file to write 'simp/33.cubes4487.adj.ext1'
c closing file 'simp/33.cubes4487.adj.ext1'
c after writing 12012 bytes 0.0 MB
c wrote 805 witnesses in 0.00 seconds process time
c 
c --- [ result ] -------------------------------------------------------------
c 
s SATISFIABLE
c 
c --- [ run-time profiling ] -------------------------------------------------
c 
c process time taken by individual solving procedures
c (percentage relative to process time for solving)
c 
c        19.39  118.91% parse
c        16.30  100.00% search
c        14.72   90.26% unstable
c         0.99    6.10% stable
c         0.59    3.64% lucky
c         0.00    0.00% simplify
c   =================================
c        16.30   44.85% solve
c 
c last line shows process time for solving
c (percentage relative to total process time)
c 
c --- [ statistics ] ---------------------------------------------------------
c 
c chronological:               666        33.60 %  of conflicts
c conflicts:                  1982       121.57    per second
c decisions:                 20697      1269.53    per second
c fixed:                       805        13.07 %  of all variables
c learned:                    1928        97.28 %  per conflict
c learned_lits:             275764       100.00 %  learned literals
c minimized:                     0         0.00 %  learned literals
c shrunken:                 202418        73.40 %  learned literals
c minishrunken:              12459         4.52 %  learned literals
c propagations:             382809         0.02 M  per second
c reduced:                      90         4.54 %  per conflict
c rephased:                      1      1982.00    interval
c restarts:                    158        12.54    interval
c stabilizing:                   1        49.50 %  of conflicts
c subsumed:                    554         0.02 %  of all clauses
c 
c seconds are measured in process time for solving
c 
c --- [ resources ] ----------------------------------------------------------
c 
c total process time since initialization:        36.35    seconds
c total real time since initialization:           36.42    seconds
c maximum resident set size of process:         1502.80    MB
c 
c --- [ shutting down ] ------------------------------------------------------
c 
c exit 10
WARNING! DIMACS header mismatch: wrong number of variables.
============================[ Problem Statistics ]=============================
|                                                                             |
|  Number of variables:          6120                                         |
|  Number of clauses:          214646                                         |
|  Parse time:                   1.18 s                                       |
|  Simplification time:          0.02 s                                       |
|                                                                             |
============================[ Search Statistics ]====================================================
| Conflicts |          ORIGINAL         |          LEARNT          | Num Sols |      SUBGRAPHS      |
|           |    Vars  Clauses Literals |    Limit  Clauses Lit/Cl |          | Canonical Noncanon. |
=====================================================================================================
|       213 |    6026   214759 19692654 |     2000      213     17 |        0 |        76       113 |
|       530 |    6026   214926 19694845 |     2000      530     13 |        0 |       160       280 |
|      1154 |    6026   215325 19700660 |     2000     1154     14 |        0 |       351       679 |
|      2096 |    5996   215930 19707554 |     3602     1098      9 |        0 |       665      1284 |
|      4117 |    5996   217445 19727332 |     3602     3119     11 |        0 |      1168      2799 |
|      7223 |    5996   219792 19753406 |     5001     4424     10 |        0 |      1927      5146 |
=====================================================================================================
Number of solutions   : 0
Canonical subgraphs   : 3161           (41 /sec)
          order  3    : 1              (200000 /sec)
          order  4    : 1              (500000 /sec)
          order  5    : 1              (250000 /sec)
          order  6    : 1              (55556 /sec)
          order  7    : 2              (10471 /sec)
          order  8    : 5              (2349 /sec)
          order  9    : 13             (570 /sec)
          order 10    : 46             (162 /sec)
          order 11    : 96             (52 /sec)
          order 12    : 456            (43 /sec)
          order 13    : 2511           (40 /sec)
          order 14    : 28             (18 /sec)
          order 15    : 0              (-nan /sec)
          order 16    : 0              (-nan /sec)
          order 17    : 0              (-nan /sec)
          order 18    : 0              (-nan /sec)
          order 19    : 0              (-nan /sec)
          order 20    : 0              (-nan /sec)
          order 21    : 0              (-nan /sec)
          order 22    : 0              (-nan /sec)
Noncanonical subgraphs: 9277           (458 /sec)
          order  3    : 0              (-nan /sec)
          order  4    : 0              (-nan /sec)
          order  5    : 0              (-nan /sec)
          order  6    : 0              (-nan /sec)
          order  7    : 0              (-nan /sec)
          order  8    : 0              (-nan /sec)
          order  9    : 0              (-nan /sec)
          order 10    : 0              (-nan /sec)
          order 11    : 0              (-nan /sec)
          order 12    : 0              (-nan /sec)
          order 13    : 4653           (2183 /sec)
          order 14    : 4571           (258 /sec)
          order 15    : 53             (133 /sec)
          order 16    : 0              (-nan /sec)
          order 17    : 0              (-nan /sec)
          order 18    : 0              (-nan /sec)
          order 19    : 0              (-nan /sec)
          order 20    : 0              (-nan /sec)
          order 21    : 0              (-nan /sec)
Canonicity checking   : 76.5948 s
Noncanonicity checking: 20.2643 s
Total canonicity time : 96.8591 s
database reductions   : 4
restarts              : 53
conflicts             : 12254          (121 /sec)
decisions             : 27782          (0.00 % random) (274 /sec)
propagations          : 1433125        (14124 /sec)
conflict literals     : 128530         (67.86 % deleted)
actual reward         : 0.042454
Memory used           : 98.00 MB
CPU time              : 101.465 s

UNSATISFIABLE
